NAME: I1262-n31-k6
COMMENT : (Fake et al, No of trucks: 6, Optimal value: )
TYPE : CVRP
DIMENSION : 31
EDGE_WEIGHT_TYPE : EUC_2D
CAPACITY : 15
NODE_COORD_SECTION
1 357 518
2 59 896
3 532 770
4 336 816
5 674 770
6 122 860
7 377 380
8 842 29
9 642 466
10 661 354
11 283 521
12 911 54
13 991 427
14 176 728
15 715 105
16 100 547
17 968 861
18 615 209
19 53 232
20 332 723
21 450 669
22 282 737
23 216 497
24 742 276
25 650 28
26 334 504
27 291 388
28 526 70
29 865 914
30 814 338
31 207 330
DEMAND_SECTION
1 0
2 1
3 3
4 3
5 1
6 4
7 2
8 1
9 4
10 3
11 4
12 3
13 2
14 3
15 3
16 1
17 2
18 1
19 2
20 1
21 2
22 4
23 1
24 4
25 4
26 3
27 4
28 3
29 3
30 3
31 1
DEPOT_SECTION
 1
 -1
 EOF 